NAME : rc_207.4
TYPE : TSPTW
DIMENSION : 6
EDGE_WEIGHT_TYPE : EXPLICIT
EDGE_WEIGHT_FORMAT : FULL_MATRIX
EDGE_WEIGHT_SECTION
0 206155 111803 147648 192354 141421 
306155 100000 241421 322036 180623 390689 
211803 241421 100000 185440 192195 250000 
247647 322036 185440 100000 256205 190554 
292354 180623 192195 256205 100000 337065 
241421 390689 250000 190554 337065 100000 
TIME_WINDOW_SECTION
1 0 9600000
2 200000 4970000
3 110000 5700000
4 850000 3380000
5 190000 3260000
6 1090000 3540000
DEPOT_SECTION
1 
-1
EOF
